p gcnf 71 162 16
{1} 1 0
{2} 2 0
{3} 3 0
{4} 4 0
{5} 5 0
{6} 6 0
{7} 7 0
{8} 8 0
{9} 9 0
{10} 10 0
{11} 11 0
{12} 12 0
{13} 13 0
{14} 14 0
{15} 15 0
{16} 16 0
{0} -28 20 29 0
{0} -24 20 29 0
{0} -24 -28 29 0
{0} -29 17 0
{0} -25 17 0
{0} -29 -25 18 0
{0} -26 18 0
{0} -29 -26 19 0
{0} -27 19 0
{0} -29 -27 0
{0} -21 17 0
{0} -29 -21 18 0
{0} -22 18 0
{0} -29 -22 19 0
{0} -23 19 0
{0} -29 -23 0
{0} -21 -25 18 0
{0} -29 -21 -25 19 0
{0} -21 -26 19 0
{0} -29 -21 -26 0
{0} -21 -27 0
{0} -29 -21 -27 0
{0} -22 -25 19 0
{0} -29 -22 -25 0
{0} -22 -26 0
{0} -29 -22 -26 0
{0} -22 -27 0
{0} -29 -22 -27 0
{0} -23 -25 0
{0} -29 -23 -25 0
{0} -23 -26 0
{0} -29 -23 -26 0
{0} -23 -27 0
{0} -29 -23 -27 0
{0} -35 28 36 0
{0} -32 28 36 0
{0} -32 -35 36 0
{0} -36 25 0
{0} -33 25 0
{0} -36 -33 26 0
{0} -34 26 0
{0} -36 -34 27 0
{0} -30 25 0
{0} -36 -30 26 0
{0} -31 26 0
{0} -36 -31 27 0
{0} -30 -33 26 0
{0} -36 -30 -33 27 0
{0} -30 -34 27 0
{0} -36 -30 -34 0
{0} -31 -33 27 0
{0} -36 -31 -33 0
{0} -31 -34 0
{0} -36 -31 -34 0
{0} -40 35 41 0
{0} -38 35 41 0
{0} -38 -40 41 0
{0} -41 33 0
{0} -39 33 0
{0} -41 -39 34 0
{0} -37 33 0
{0} -41 -37 34 0
{0} -37 -39 34 0
{0} -41 -37 -39 0
{0} -16 40 42 0
{0} -15 40 42 0
{0} -15 -16 42 0
{0} -42 39 0
{0} -14 38 43 0
{0} -13 38 43 0
{0} -13 -14 43 0
{0} -43 37 0
{0} -47 32 48 0
{0} -45 32 48 0
{0} -45 -47 48 0
{0} -48 30 0
{0} -46 30 0
{0} -48 -46 31 0
{0} -44 30 0
{0} -48 -44 31 0
{0} -44 -46 31 0
{0} -48 -44 -46 0
{0} -12 47 49 0
{0} -11 47 49 0
{0} -11 -12 49 0
{0} -49 46 0
{0} -10 45 50 0
{0} -9 45 50 0
{0} -9 -10 50 0
{0} -50 44 0
{0} -56 24 57 0
{0} -53 24 57 0
{0} -53 -56 57 0
{0} -57 21 0
{0} -54 21 0
{0} -57 -54 22 0
{0} -55 22 0
{0} -57 -55 23 0
{0} -51 21 0
{0} -57 -51 22 0
{0} -52 22 0
{0} -57 -52 23 0
{0} -51 -54 22 0
{0} -57 -51 -54 23 0
{0} -51 -55 23 0
{0} -57 -51 -55 0
{0} -52 -54 23 0
{0} -57 -52 -54 0
{0} -52 -55 0
{0} -57 -52 -55 0
{0} -61 56 62 0
{0} -59 56 62 0
{0} -59 -61 62 0
{0} -62 54 0
{0} -60 54 0
{0} -62 -60 55 0
{0} -58 54 0
{0} -62 -58 55 0
{0} -58 -60 55 0
{0} -62 -58 -60 0
{0} -8 61 63 0
{0} -7 61 63 0
{0} -7 -8 63 0
{0} -63 60 0
{0} -6 59 64 0
{0} -5 59 64 0
{0} -5 -6 64 0
{0} -64 58 0
{0} -68 53 69 0
{0} -66 53 69 0
{0} -66 -68 69 0
{0} -69 51 0
{0} -67 51 0
{0} -69 -67 52 0
{0} -65 51 0
{0} -69 -65 52 0
{0} -65 -67 52 0
{0} -69 -65 -67 0
{0} -4 68 70 0
{0} -3 68 70 0
{0} -3 -4 70 0
{0} -70 67 0
{0} -2 66 71 0
{0} -1 66 71 0
{0} -1 -2 71 0
{0} -71 65 0
